p cnf 67 171
c ind 61 63 65 56 58 64 59 53 55 57 0
c ind 62 52 54 60 1 0
c ret 35 44 45 46 47 48 49 50 51 36 0
c ret 37 38 39 40 41 42 43 0
2 3 -21 -26 -30 0
-2 -3 0
-2 30 0
-2 26 0
-2 21 0
3 4 -11 0
3 -7 -11 0
3 8 -11 0
-3 11 0
-3 -4 7 -8 0
4 5 -6 0
4 5 50 -57 0
4 5 -50 57 0
-4 -5 0
-4 6 50 57 0
-4 6 -50 -57 0
5 -40 50 -56 64 0
5 40 -50 56 -64 0
5 40 50 56 64 0
5 -40 -50 -56 -64 0
-5 -40 56 0
-5 40 -56 0
-5 50 -64 0
-5 -50 64 0
6 40 -53 0
6 -40 53 0
-6 -40 -53 0
-6 40 53 0
7 -40 50 -55 62 0
7 40 -50 55 -62 0
7 40 50 55 62 0
7 -40 -50 -55 -62 0
-7 -40 55 0
-7 40 -55 0
-7 50 -62 0
-7 -50 62 0
8 -9 10 0
8 10 -50 60 0
8 10 50 -60 0
-8 -10 0
-8 9 -50 -60 0
-8 9 50 60 0
9 40 -54 0
9 -40 54 0
-9 -40 -54 0
-9 40 54 0
10 -40 50 -52 59 0
10 40 -50 52 -59 0
10 40 50 52 59 0
10 -40 -50 -52 -59 0
-10 -40 52 0
-10 40 -52 0
-10 50 -59 0
-10 -50 59 0
11 -12 -15 -16 57 0
11 -12 15 -16 -57 0
-11 16 0
-11 -15 -57 0
-11 12 0
-11 15 57 0
12 13 -14 -60 0
12 -13 -14 60 0
12 -13 60 -64 0
12 13 -60 -64 0
-12 -13 -60 0
-12 13 60 0
-12 14 64 0
13 -53 61 0
13 57 61 0
-13 -61 0
-13 53 -57 0
14 -55 65 0
14 62 65 0
-14 -65 0
-14 55 -62 0
15 58 59 0
15 -52 58 0
-15 -58 0
-15 52 -59 0
16 17 18 -19 -62 0
16 -17 18 -19 62 0
-16 19 0
-16 17 62 0
-16 -18 0
-16 -17 -62 0
17 -54 63 0
17 60 63 0
-17 -63 0
-17 54 -60 0
18 -55 -64 65 0
18 62 -64 65 0
-18 64 0
-18 -65 0
-18 55 -62 0
19 -20 54 55 56 0
-19 20 0
-19 -56 0
-19 -54 0
-19 -55 0
20 52 53 0
-20 -52 0
-20 -53 0
21 -22 -23 0
21 -23 -48 0
-21 23 0
-21 22 48 0
22 -38 49 0
22 46 49 0
-22 -49 0
-22 38 -46 0
23 24 50 0
23 25 44 0
23 24 25 0
23 44 50 0
-23 -24 -44 0
-23 -25 -50 0
24 -36 45 0
24 41 45 0
-24 -45 0
-24 36 -41 0
25 -39 51 0
25 48 51 0
-25 -51 0
-25 39 -48 0
26 -27 29 -50 0
-25 26 -27 29 0
-26 27 0
-26 -29 0
25 -26 50 0
22 27 -46 0
27 -28 48 0
22 27 -28 0
27 -46 48 0
-22 -27 -48 0
-27 28 46 0
28 -37 47 0
28 44 47 0
-28 -47 0
-28 37 -44 0
29 -35 -41 42 0
29 -41 42 43 0
-29 41 0
-29 -42 0
-29 35 -43 0
30 -31 -33 46 0
28 30 -31 -33 0
-30 33 0
-30 31 0
-28 -30 -46 0
31 -32 35 36 0
-31 32 0
-31 -36 0
-31 -35 0
32 37 38 39 40 0
-32 -40 0
-32 -39 0
-32 -37 0
-32 -38 0
-24 33 -41 0
33 -34 -44 0
33 -41 -44 0
-24 33 -34 0
24 -33 44 0
-33 34 41 0
34 42 43 0
34 -35 42 0
-34 -42 0
-34 35 -43 0
1 2 0
-1 -2 0
66 0

